N = 16;
M = 36;
Edge_Start = [1, 1, 2, 3, 3, 4, 5, 6, 7, 7, 8, 9, 9, 10, 12, 13, 14, 15, 2, 6, 3, 4, 8, 5, 10, 7, 8, 12, 9, 10, 14, 11, 13, 14, 15, 16];
Edge_End = [2, 6, 3, 4, 8, 5, 10, 7, 8, 12, 9, 10, 14, 11, 13, 14, 15, 16, 1, 1, 2, 3, 3, 4, 5, 6, 7, 7, 8, 9, 9, 10, 12, 13, 14, 15];
L = [14, 7, 12, 6, 6, 14, 18, 12, 18, 10, 10, 18, 16, 10, 2, 15, 7, 15, 14, 7, 12, 6, 6, 14, 18, 12, 18, 10, 10, 18, 16, 10, 2, 15, 7, 15];
T = [10, 9, 12, 4, 2, 4, 20, 2, 18, 10, 4, 18, 18, 15, 11, 25, 17, 14, 10, 9, 12, 4, 2, 4, 20, 2, 18, 10, 4, 18, 18, 15, 11, 25, 17, 14];
Lower_Bound = [0, 10, 22, 26, 30, 9, 11, 24, 28, 46, 61, 21, 32, 46, 63, 77];
Upper_Bound = [0, 10, 22, 26, 30, 9, 11, 24, 28, 46, 61, 21, 32, 46, 63, 77];
Start = 1;
End = 16;
Time = 77;
